/*instance size 340000*/
n = 40;
t = 50;
profit = [9 6 4 7 2 7 5 1 8 7 2 7 10 5 4 10 9 8 6 6 8 2 5 9 2 3 9 10 1 1 1 4 3 2 8 5 6 8 4 9];
length = [1 4 3 4 5 5 2 4 3 3 1 3 4 2 3 5 1 1 5 4 5 1 3 2 5 3 5 3 3 5 3 4 3 5 1 1 4 5 5 3];
min_deliver = [7 1 2 12 9 13 10 2 4 11 5 1 8 15 8 2 5 12 15 14 11 14 13 5 2 15 9 12 5 6 5 4 5 14 9 13 9 10 4 15];
max_deliver = [24 45 45 37 38 22 38 35 27 22 29 22 33 20 31 32 41 21 42 43 47 30 35 46 30 44 50 40 50 36 50 25 30 34 48 34 33 38 20 30];
surface = [2 7 9 10 8 3 5 4 3 4 6 4 9 10 3 7 1 7 5 1 9 10 8 10 5 6 8 2 2 6 8 4 1 7 4 9 6 7 10 2];
surface_capacity = 16;